
n_res = 4;
rcap = [46, 38, 295, 256];
rtype = [1, 1, 2, 2];
n_tasks = 100;
modes =  [{1, 2, 3}, {4, 5, 6}, {7, 8, 9}, {10, 11, 12}, {13, 14, 15}, {16, 17, 18}, {19, 20, 21}, {22, 23, 24}, {25, 26, 27}, {28, 29, 30}, {31, 32, 33}, {34, 35, 36}, {37, 38, 39}, {40, 41, 42}, {43, 44, 45}, {46, 47, 48}, {49, 50, 51}, {52, 53, 54}, {55, 56, 57}, {58, 59, 60}, {61, 62, 63}, {64, 65, 66}, {67, 68, 69}, {70, 71, 72}, {73, 74, 75}, {76, 77, 78}, {79, 80, 81}, {82, 83, 84}, {85, 86, 87}, {88, 89, 90}, {91, 92, 93}, {94, 95, 96}, {97, 98, 99}, {100, 101, 102}, {103, 104, 105}, {106, 107, 108}, {109, 110, 111}, {112, 113, 114}, {115, 116, 117}, {118, 119, 120}, {121, 122, 123}, {124, 125, 126}, {127, 128, 129}, {130, 131, 132}, {133, 134, 135}, {136, 137, 138}, {139, 140, 141}, {142, 143, 144}, {145, 146, 147}, {148, 149, 150}, {151, 152, 153}, {154, 155, 156}, {157, 158, 159}, {160, 161, 162}, {163, 164, 165}, {166, 167, 168}, {169, 170, 171}, {172, 173, 174}, {175, 176, 177}, {178, 179, 180}, {181, 182, 183}, {184, 185, 186}, {187, 188, 189}, {190, 191, 192}, {193, 194, 195}, {196, 197, 198}, {199, 200, 201}, {202, 203, 204}, {205, 206, 207}, {208, 209, 210}, {211, 212, 213}, {214, 215, 216}, {217, 218, 219}, {220, 221, 222}, {223, 224, 225}, {226, 227, 228}, {229, 230, 231}, {232, 233, 234}, {235, 236, 237}, {238, 239, 240}, {241, 242, 243}, {244, 245, 246}, {247, 248, 249}, {250, 251, 252}, {253, 254, 255}, {256, 257, 258}, {259, 260, 261}, {262, 263, 264}, {265, 266, 267}, {268, 269, 270}, {271, 272, 273}, {274, 275, 276}, {277, 278, 279}, {280, 281, 282}, {283, 284, 285}, {286, 287, 288}, {289, 290, 291}, {292, 293, 294}, {295, 296, 297}, {298, 299, 300}];
succ =  [{60, 55, 53, 52, 50, 48, 47, 46, 44, 40, 30, 26, 25, 10}, {100, 99, 98, 93, 91, 88, 85, 84, 82, 79, 64, 63, 62, 60, 59, 58, 54, 53, 52, 47, 46, 44, 43, 33}, {98, 96, 94, 90, 85, 81, 79, 64, 63, 62, 61, 59, 58, 55, 44, 43, 33, 25}, {100, 99, 97, 92, 83, 81, 62, 59, 51, 49, 42, 30, 20}, {100, 97, 96, 95, 94, 87, 85, 82, 79, 64, 62, 58, 51, 48, 47, 46, 44, 25}, {96, 92, 45, 33, 23, 12}, {100, 98, 94, 93, 92, 86, 85, 84, 83, 82, 81, 79, 64, 63, 62, 61, 58, 56, 52, 45, 43, 33}, {99, 96, 94, 93, 92, 91, 89, 88, 87, 85, 84, 82, 81, 64, 63, 62, 58, 53, 41, 34}, {99, 96, 95, 94, 93, 92, 90, 87, 86, 85, 84, 81, 80, 79, 78, 63, 62, 60, 58, 45, 43, 40}, {100, 99, 98, 94, 92, 90, 86, 85, 83, 81, 80, 79, 73, 67, 62, 61, 59, 58, 54, 33}, {98, 94, 90, 88, 85, 82, 79, 72, 64, 63, 56, 46, 41, 33}, {100, 98, 97, 94, 91, 90, 84, 83, 82, 81, 80, 79, 66, 64, 62, 61, 59, 54, 51, 44, 43}, {100, 97, 91, 88, 86, 85, 82, 74, 62, 56, 55, 43, 29}, {95, 94, 87, 84, 83, 81, 80, 79, 63, 44, 43, 30}, {97, 96, 87, 84, 78, 77, 72, 63, 60, 55, 53, 47, 41, 38}, {99, 91, 89, 85, 84, 82, 81, 79, 76, 74, 66, 62, 61, 56, 49, 44, 43}, {98, 96, 93, 92, 89, 86, 84, 79, 63, 62, 60, 55, 45, 43}, {96, 92, 90, 88, 87, 86, 85, 84, 82, 81, 80, 79, 77, 76, 72, 70, 66, 53, 41}, {98, 93, 90, 87, 86, 85, 83, 82, 81, 79, 76, 71, 69, 62, 58, 45, 43}, {96, 95, 93, 90, 89, 88, 87, 86, 84, 82, 80, 79, 78, 73, 70, 69, 63, 58, 57, 53}, {97, 95, 92, 88, 85, 84, 80, 78, 77, 74, 72, 71, 69, 67, 64, 63, 62, 59, 48}, {99, 95, 94, 93, 91, 83, 82, 81, 79, 78, 74, 72, 69, 63, 51, 43}, {100, 90, 89, 88, 87, 85, 84, 82, 76, 74, 73, 70, 67, 66, 64, 57, 44}, {93, 89, 87, 84, 82, 81, 80, 70, 66, 44, 41}, {99, 93, 92, 91, 89, 88, 84, 83, 78, 76, 75, 74, 73, 72, 70, 69, 67, 54}, {96, 95, 93, 92, 87, 84, 83, 79, 78, 76, 74, 73, 71, 70, 69, 68, 67, 65, 63}, {100, 96, 94, 92, 88, 85, 81, 79, 78, 76, 74, 70, 69, 62, 53}, {99, 93, 85, 81, 80, 78, 77, 76, 72, 71, 70, 67, 63, 60, 47}, {94, 83, 81, 80, 79, 77, 76, 73, 72, 70, 69, 66, 57, 53}, {96, 91, 86, 85, 82, 77, 76, 75, 72, 66, 41}, {91, 88, 82, 79, 74, 71, 69, 66, 62, 59, 43}, {90, 84, 81, 79, 78, 77, 76, 74, 73, 72, 70, 67, 66, 57}, {97, 95, 87, 78, 77, 76, 74, 71, 66, 57, 51}, {86, 80, 79, 78, 72, 69, 66, 43}, {90, 73, 70, 69, 65, 53, 46}, {95, 93, 87, 83, 79, 77, 74, 72, 71, 69, 68, 66, 64}, {99, 93, 90, 87, 82, 79, 78, 69, 68, 67, 65, 63}, {89, 85, 83, 80, 79, 76, 75, 74, 71, 70, 67, 65}, {97, 84, 82, 74, 70, 69, 62, 58}, {88, 82, 75, 74, 72, 70, 69, 67, 65}, {74, 73, 69, 67, 61, 57}, {96, 94, 82, 76, 75, 70, 66, 65}, {77, 73, 70, 67, 57}, {86, 78, 77, 72, 69, 65}, {91, 88, 74, 72, 65}, {83, 81, 80, 71, 66}, {92, 69, 68, 66, 65}, {98, 90, 83, 75, 73}, {90, 75, 68, 67, 65}, {81, 76, 73, 71, 69}, {89, 75, 70, 65}, {75, 72, 67, 65}, {75, 67, 61}, {71, 57}, {80, 76, 71}, {80, 78, 65}, {68, 65}, {72, 66}, {76, 68}, {69, 66}, {71}, {65}, {66}, {65}, {}, {}, {}, {}, {}, {}, {}, {}, {}, {}, {}, {}, {}, {}, {}, {}, {}, {}, {}, {}, {}, {}, {}, {}, {}, {}, {}, {}, {}, {}, {}, {}, {}, {}, {}, {}];
n_opt = 300;
dur = [3, 4, 10, 2, 4, 9, 4, 7, 9, 2, 2, 7, 3, 3, 5, 5, 6, 7, 3, 6, 7, 1, 7, 10, 1, 5, 10, 6, 6, 10, 6, 9, 9, 6, 7, 8, 2, 4, 4, 1, 4, 8, 2, 8, 10, 1, 4, 5, 3, 6, 9, 4, 6, 6, 1, 6, 7, 5, 9, 10, 1, 6, 9, 3, 4, 5, 7, 8, 9, 1, 2, 4, 1, 6, 8, 5, 6, 10, 2, 8, 9, 4, 5, 6, 4, 9, 10, 6, 7, 10, 2, 3, 8, 5, 6, 6, 3, 8, 8, 4, 9, 10, 2, 2, 2, 2, 4, 5, 1, 2, 8, 5, 5, 8, 1, 2, 5, 5, 8, 8, 3, 6, 9, 2, 3, 6, 1, 7, 10, 3, 6, 8, 1, 7, 9, 1, 2, 8, 3, 3, 9, 1, 3, 9, 6, 7, 10, 3, 5, 6, 2, 7, 8, 4, 4, 8, 3, 5, 8, 5, 8, 9, 9, 9, 10, 5, 7, 9, 4, 6, 7, 5, 5, 7, 8, 10, 10, 1, 2, 7, 3, 7, 10, 1, 3, 8, 2, 6, 8, 1, 3, 9, 1, 1, 2, 4, 4, 8, 7, 9, 10, 1, 3, 5, 1, 3, 10, 4, 8, 10, 3, 6, 8, 9, 9, 10, 2, 2, 3, 4, 6, 8, 3, 9, 9, 5, 7, 8, 3, 6, 9, 2, 7, 10, 1, 6, 8, 8, 8, 10, 1, 6, 7, 5, 5, 10, 3, 6, 8, 7, 7, 9, 2, 7, 8, 1, 5, 10, 2, 4, 4, 3, 4, 7, 5, 7, 8, 4, 9, 10, 5, 5, 10, 2, 4, 9, 3, 7, 10, 8, 9, 10, 1, 4, 7, 3, 6, 9, 1, 5, 8, 3, 4, 8, 1, 8, 10, 4, 6, 9];
rreq = [|3, 2, 2, 8, 6, 6, 0, 0, 8, 7, 7, 0, 5, 3, 2, 0, 0, 0, 2, 2, 2, 6, 4, 3, 8, 6, 4, 5, 0, 0, 9, 0, 0, 0, 0, 1, 8, 0, 7, 5, 0, 0, 0, 0, 4, 0, 9, 0, 0, 0, 0, 4, 3, 0, 9, 7, 4, 5, 3, 0, 6, 3, 3, 4, 0, 0, 2, 2, 0, 6, 3, 3, 0, 4, 0, 9, 0, 8, 0, 2, 0, 5, 4, 0, 0, 0, 1, 4, 0, 3, 9, 6, 5, 0, 0, 5, 0, 9, 0, 0, 0, 10, 0, 6, 0, 0, 5, 0, 8, 0, 0, 0, 0, 8, 0, 6, 0, 0, 6, 0, 0, 0, 6, 0, 6, 0, 0, 0, 7, 0, 5, 5, 6, 6, 5, 6, 0, 5, 3, 0, 0, 0, 7, 0, 6, 0, 6, 0, 0, 0, 7, 6, 2, 9, 7, 0, 5, 4, 4, 7, 0, 0, 0, 5, 5, 0, 0, 0, 3, 2, 0, 8, 5, 5, 2, 2, 0, 10, 0, 0, 0, 7, 0, 5, 4, 0, 6, 0, 5, 10, 5, 2, 9, 6, 0, 5, 0, 3, 9, 9, 8, 0, 2, 0, 6, 5, 4, 0, 0, 0, 0, 0, 0, 10, 0, 0, 0, 4, 0, 0, 0, 4, 9, 0, 4, 9, 7, 7, 5, 3, 0, 0, 0, 0, 0, 4, 4, 3, 0, 2, 0, 5, 4, 0, 5, 0, 6, 0, 5, 9, 0, 8, 0, 7, 5, 5, 4, 0, 5, 4, 0, 7, 7, 0, 10, 0, 0, 2, 2, 2, 0, 5, 3, 8, 0, 3, 0, 4, 4, 0, 0, 0, 0, 0, 0, 6, 3, 2, 0, 2, 2, 0, 0, 3, 0, 0, 2, 0, 6, 6
 |0, 0, 0, 0, 0, 0, 4, 4, 0, 0, 0, 6, 0, 0, 0, 8, 5, 3, 0, 0, 0, 0, 0, 0, 0, 0, 0, 0, 6, 3, 0, 4, 4, 4, 3, 0, 0, 1, 0, 0, 8, 8, 4, 3, 0, 9, 0, 4, 6, 4, 2, 0, 0, 1, 0, 0, 0, 0, 0, 3, 0, 0, 0, 0, 1, 1, 0, 0, 4, 0, 0, 0, 5, 0, 2, 0, 6, 0, 7, 0, 4, 0, 0, 1, 6, 4, 0, 0, 3, 0, 0, 0, 0, 6, 5, 0, 2, 0, 2, 8, 7, 0, 7, 0, 3, 7, 0, 4, 0, 4, 2, 2, 2, 0, 2, 0, 2, 7, 0, 5, 9, 8, 0, 6, 0, 2, 2, 2, 0, 7, 0, 0, 0, 0, 0, 0, 4, 0, 0, 9, 9, 8, 0, 7, 0, 6, 0, 6, 5, 2, 0, 0, 0, 0, 0, 9, 0, 0, 0, 0, 8, 8, 4, 0, 0, 10, 8, 7, 0, 0, 3, 0, 0, 0, 0, 0, 9, 0, 8, 8, 5, 0, 4, 0, 0, 2, 0, 4, 0, 0, 0, 0, 0, 0, 2, 0, 8, 0, 0, 0, 0, 8, 0, 3, 0, 0, 0, 5, 5, 5, 8, 4, 4, 0, 7, 7, 3, 0, 3, 2, 2, 0, 0, 6, 0, 0, 0, 0, 0, 0, 1, 7, 6, 6, 10, 0, 0, 0, 6, 0, 3, 0, 0, 5, 0, 2, 0, 1, 0, 0, 3, 0, 9, 0, 0, 0, 0, 1, 0, 0, 3, 0, 0, 2, 0, 4, 4, 0, 0, 0, 8, 0, 0, 0, 5, 0, 9, 0, 0, 9, 7, 5, 9, 8, 7, 0, 0, 0, 4, 0, 0, 9, 7, 0, 5, 3, 0, 5, 0, 0
 |0, 4, 0, 5, 0, 4, 0, 6, 4, 9, 0, 0, 10, 0, 10, 8, 7, 6, 4, 0, 0, 4, 3, 0, 5, 0, 3, 9, 0, 9, 0, 0, 3, 0, 8, 0, 0, 0, 5, 6, 4, 3, 9, 9, 0, 6, 0, 0, 4, 0, 2, 0, 0, 4, 6, 5, 5, 7, 0, 2, 0, 0, 4, 7, 0, 0, 0, 4, 0, 0, 0, 2, 0, 0, 4, 0, 0, 0, 0, 0, 3, 1, 1, 0, 8, 7, 6, 0, 7, 4, 6, 0, 0, 0, 4, 4, 0, 0, 4, 3, 3, 3, 10, 8, 0, 4, 0, 0, 0, 5, 0, 0, 7, 0, 7, 0, 1, 0, 0, 2, 8, 0, 0, 6, 0, 5, 9, 8, 0, 1, 0, 1, 0, 5, 3, 0, 0, 3, 0, 0, 2, 10, 0, 0, 0, 3, 0, 6, 0, 0, 6, 4, 0, 0, 3, 2, 8, 0, 6, 0, 2, 1, 0, 2, 0, 1, 0, 0, 8, 7, 6, 9, 0, 0, 0, 1, 1, 9, 0, 3, 2, 2, 1, 9, 5, 0, 0, 7, 4, 0, 8, 7, 7, 0, 5, 5, 0, 0, 0, 0, 4, 9, 0, 9, 0, 9, 9, 0, 0, 4, 0, 4, 0, 2, 2, 1, 0, 0, 4, 0, 0, 0, 7, 0, 7, 2, 3, 2, 8, 0, 0, 3, 2, 1, 3, 0, 0, 0, 0, 8, 8, 7, 6, 0, 0, 4, 4, 0, 3, 0, 0, 0, 5, 3, 0, 10, 0, 0, 0, 6, 0, 6, 0, 3, 10, 7, 0, 7, 0, 4, 8, 7, 7, 4, 4, 0, 0, 7, 0, 4, 0, 2, 0, 4, 2, 0, 0, 7, 4, 4, 0, 6, 4, 3, 4, 4, 4, 0, 0, 7
 |7, 0, 5, 0, 4, 0, 8, 0, 0, 0, 8, 8, 0, 4, 0, 0, 0, 0, 0, 6, 5, 0, 0, 6, 0, 7, 0, 0, 5, 0, 10, 8, 0, 4, 0, 3, 2, 2, 0, 0, 0, 0, 0, 0, 7, 0, 4, 4, 0, 4, 0, 7, 6, 0, 0, 0, 0, 0, 4, 0, 7, 6, 0, 0, 3, 1, 4, 0, 3, 3, 3, 0, 6, 5, 0, 10, 5, 5, 7, 6, 0, 0, 0, 3, 0, 0, 0, 9, 0, 0, 0, 3, 1, 1, 0, 0, 3, 3, 0, 0, 0, 0, 0, 0, 8, 0, 4, 4, 8, 0, 4, 7, 0, 3, 0, 6, 0, 2, 2, 0, 0, 4, 4, 0, 9, 0, 0, 0, 8, 0, 4, 0, 5, 0, 0, 4, 3, 0, 8, 7, 0, 0, 7, 5, 6, 0, 5, 0, 4, 3, 0, 0, 7, 5, 0, 0, 0, 6, 0, 8, 0, 0, 5, 0, 2, 0, 7, 5, 0, 0, 0, 0, 7, 5, 4, 0, 0, 0, 3, 0, 0, 0, 0, 0, 0, 3, 9, 0, 0, 9, 0, 0, 0, 8, 0, 0, 5, 3, 9, 7, 0, 0, 7, 0, 4, 0, 0, 9, 8, 0, 6, 0, 4, 0, 0, 0, 10, 9, 0, 9, 8, 8, 0, 4, 0, 0, 0, 0, 0, 8, 8, 0, 0, 0, 0, 4, 3, 7, 5, 0, 0, 0, 0, 6, 3, 0, 0, 2, 0, 4, 4, 4, 0, 0, 3, 0, 4, 2, 8, 0, 4, 0, 5, 0, 0, 0, 4, 0, 2, 0, 0, 0, 0, 0, 0, 8, 9, 0, 4, 0, 6, 0, 9, 0, 0, 8, 3, 0, 0, 0, 1, 0, 0, 0, 0, 0, 0, 4, 3, 0|];